# Solution for model FSG
# Objective value = 6.0034672474910451e+02
x_0_1 0
x_0_2 0
x_0_3 0
x_0_4 1
x_0_5 1
x_0_6 0
x_0_7 0
x_1_2 0
x_1_3 0
x_1_4 0
x_1_5 0
x_1_6 1
x_1_7 0
x_2_1 1
x_2_3 0
x_2_4 0
x_2_5 0
x_2_6 0
x_2_7 0
x_3_1 0
x_3_2 0
x_3_4 0
x_3_5 0
x_3_6 0
x_3_7 1
x_4_1 0
x_4_2 0
x_4_3 1
x_4_5 0
x_4_6 0
x_4_7 0
x_5_1 0
x_5_2 1
x_5_3 0
x_5_4 0
x_5_6 0
x_5_7 0
U_1_1 0
U_1_2 0
U_1_3 1
U_2_1 0
U_2_2 0
U_2_3 1
U_3_1 0
U_3_2 0
U_3_3 1
U_4_1 0
U_4_2 0
U_4_3 1
U_5_1 0
U_5_2 1
U_5_3 0
U_6_1 0
U_6_2 0
U_6_3 1
U_7_1 0
U_7_2 0
U_7_3 1
TBar_0 0
TBar_1 2.1958585032590022e+01
TBar_2 2.1293754227046236e+01
TBar_3 2.2993125456775910e+01
TBar_4 20
TBar_5 10
TBar_6 2.7093095720084985e+01
TBar_7 2.7821303166844171e+01
y_0_1_1 0
y_0_1_2 0
y_0_1_3 0
y_0_1_4 0
y_0_1_5 0
y_0_2_1 0
y_0_2_2 0
y_0_2_3 0
y_0_2_4 0
y_0_2_5 0
y_0_3_1 0
y_0_3_2 0
y_0_3_3 0
y_0_3_4 0
y_0_3_5 0
y_0_4_1 0
y_0_4_2 0
y_0_4_3 0
y_0_4_4 0
y_0_4_5 0
y_0_5_1 0
y_0_5_2 0
y_0_5_3 0
y_0_5_4 0
y_0_5_5 0
y_0_6_1 0
y_0_6_2 0
y_0_6_3 0
y_0_6_4 0
y_0_6_5 0
y_0_7_1 0
y_0_7_2 0
y_0_7_3 0
y_0_7_4 0
y_0_7_5 0
y_1_2_1 0
y_1_2_2 0
y_1_2_3 0
y_1_2_4 0
y_1_2_5 0
y_1_3_1 0
y_1_3_2 0
y_1_3_3 0
y_1_3_4 0
y_1_3_5 0
y_1_4_1 0
y_1_4_2 0
y_1_4_3 0
y_1_4_4 0
y_1_4_5 0
y_1_5_1 0
y_1_5_2 0
y_1_5_3 0
y_1_5_4 0
y_1_5_5 0
y_1_6_1 1
y_1_6_2 1
y_1_6_3 1
y_1_6_4 1
y_1_6_5 1
y_1_7_1 0
y_1_7_2 0
y_1_7_3 0
y_1_7_4 0
y_1_7_5 0
y_2_1_1 1
y_2_1_2 1
y_2_1_3 1
y_2_1_4 1
y_2_1_5 1
y_2_3_1 0
y_2_3_2 0
y_2_3_3 0
y_2_3_4 0
y_2_3_5 0
y_2_4_1 0
y_2_4_2 0
y_2_4_3 0
y_2_4_4 0
y_2_4_5 0
y_2_5_1 0
y_2_5_2 0
y_2_5_3 0
y_2_5_4 0
y_2_5_5 0
y_2_6_1 0
y_2_6_2 0
y_2_6_3 0
y_2_6_4 0
y_2_6_5 0
y_2_7_1 0
y_2_7_2 0
y_2_7_3 0
y_2_7_4 0
y_2_7_5 0
y_3_1_1 0
y_3_1_2 0
y_3_1_3 0
y_3_1_4 0
y_3_1_5 0
y_3_2_1 0
y_3_2_2 0
y_3_2_3 0
y_3_2_4 0
y_3_2_5 0
y_3_4_1 0
y_3_4_2 0
y_3_4_3 0
y_3_4_4 0
y_3_4_5 0
y_3_5_1 0
y_3_5_2 0
y_3_5_3 0
y_3_5_4 0
y_3_5_5 0
y_3_6_1 0
y_3_6_2 0
y_3_6_3 0
y_3_6_4 0
y_3_6_5 0
y_3_7_1 0
y_3_7_2 0
y_3_7_3 0
y_3_7_4 0
y_3_7_5 0
y_4_1_1 0
y_4_1_2 0
y_4_1_3 0
y_4_1_4 0
y_4_1_5 0
y_4_2_1 0
y_4_2_2 0
y_4_2_3 0
y_4_2_4 0
y_4_2_5 0
y_4_3_1 0
y_4_3_2 0
y_4_3_3 0
y_4_3_4 0
y_4_3_5 0
y_4_5_1 0
y_4_5_2 0
y_4_5_3 0
y_4_5_4 0
y_4_5_5 0
y_4_6_1 0
y_4_6_2 0
y_4_6_3 0
y_4_6_4 0
y_4_6_5 0
y_4_7_1 0
y_4_7_2 0
y_4_7_3 0
y_4_7_4 0
y_4_7_5 0
y_5_1_1 0
y_5_1_2 0
y_5_1_3 0
y_5_1_4 0
y_5_1_5 0
y_5_2_1 0
y_5_2_2 0
y_5_2_3 0
y_5_2_4 0
y_5_2_5 0
y_5_3_1 0
y_5_3_2 0
y_5_3_3 0
y_5_3_4 0
y_5_3_5 0
y_5_4_1 0
y_5_4_2 0
y_5_4_3 0
y_5_4_4 0
y_5_4_5 0
y_5_6_1 0
y_5_6_2 0
y_5_6_3 0
y_5_6_4 0
y_5_6_5 0
y_5_7_1 0
y_5_7_2 0
y_5_7_3 0
y_5_7_4 0
y_5_7_5 0
Q_0_1 0
Q_0_2 0
Q_0_3 0
Q_0_4 0
Q_0_5 0
Q_1_1 2.0153999999999985e+02
Q_1_2 1.9412499999999986e+02
Q_1_3 1.9590499999999986e+02
Q_1_4 1.9603999999999985e+02
Q_1_5 203.55
Q_2_1 157.885
Q_2_2 157.09
Q_2_3 154.61
Q_2_4 156.53
Q_2_5 159.68
Q_3_1 1.4733999999999972e+02
Q_3_2 1.5920499999999967e+02
Q_3_3 1.4042999999999972e+02
Q_3_4 157.7
Q_3_5 1.5299500000000032e+02
Q_4_1 1.0617000000000037e+02
Q_4_2 1.1249000000000036e+02
Q_4_3 1.0257000000000036e+02
Q_4_4 110.05
Q_4_5 1.0767500000000035e+02
Q_5_1 4.6620000000000729e+01
Q_5_2 4.1475000000000733e+01
Q_5_3 3.7925000000000729e+01
Q_5_4 3.9655000000000726e+01
Q_5_5 4.3760000000000730e+01
Q_6_1 2.0153999999999985e+02
Q_6_2 1.9412499999999986e+02
Q_6_3 1.9590499999999986e+02
Q_6_4 1.9603999999999985e+02
Q_6_5 203.55
Q_7_1 1.4733999999999972e+02
Q_7_2 1.5920499999999967e+02
Q_7_3 1.4042999999999972e+02
Q_7_4 157.7
Q_7_5 1.5299500000000032e+02
R_6_1 5.1539999999999850e+01
R_6_2 4.4124999999999858e+01
R_6_3 4.5904999999999859e+01
R_6_4 4.6039999999999850e+01
R_6_5 53.55
R_7_1 0
R_7_2 9.2049999999996590e+00
R_7_3 0
R_7_4 7.7
R_7_5 2.9950000000000045e+00
L_1_1 0
L_1_2 0
L_1_3 0
L_1_4 0
L_1_5 0
L_2_1 0
L_2_2 0
L_2_3 0
L_2_4 0
L_2_5 0
L_3_1 0
L_3_2 0
L_3_3 0
L_3_4 0
L_3_5 0
L_4_1 0
L_4_2 0
L_4_3 0
L_4_4 0
L_4_5 0
L_5_1 5.615
L_5_2 2.875
L_5_3 6.6
L_5_4 6.13
L_5_5 7.04
rho_1_1 1
rho_1_2 1
rho_1_3 1
rho_1_4 1
rho_1_5 1
rho_2_1 1
rho_2_2 1
rho_2_3 1
rho_2_4 1
rho_2_5 1
rho_3_1 0
rho_3_2 1
rho_3_3 0
rho_3_4 1
rho_3_5 1
rho_4_1 0
rho_4_2 0
rho_4_3 0
rho_4_4 0
rho_4_5 0
rho_5_1 0
rho_5_2 0
rho_5_3 0
rho_5_4 0
rho_5_5 0
lambd_1_1 0
lambd_1_2 0
lambd_1_3 0
lambd_1_4 0
lambd_1_5 0
lambd_2_1 0
lambd_2_2 0
lambd_2_3 0
lambd_2_4 0
lambd_2_5 0
lambd_3_1 0
lambd_3_2 0
lambd_3_3 0
lambd_3_4 0
lambd_3_5 0
lambd_4_1 0
lambd_4_2 0
lambd_4_3 0
lambd_4_4 0
lambd_4_5 0
lambd_5_1 0
lambd_5_2 0
lambd_5_3 0
lambd_5_4 0
lambd_5_5 0
alpha_1_1 0
alpha_1_2 0
alpha_1_3 0
alpha_1_4 0
alpha_1_5 0
alpha_2_1 1
alpha_2_2 1
alpha_2_3 1
alpha_2_4 1
alpha_2_5 1
alpha_3_1 0
alpha_3_2 0
alpha_3_3 0
alpha_3_4 0
alpha_3_5 0
alpha_4_1 0
alpha_4_2 0
alpha_4_3 0
alpha_4_4 0
alpha_4_5 0
alpha_5_1 0
alpha_5_2 0
alpha_5_3 0
alpha_5_4 0
alpha_5_5 0
